p cnf 51 58
-1 47 -50 0 
-2 48 -47 -50 -31 0 
-3 48 -47 -50 -31 0 
-3 -4 48 -47 -50 -31 0 
-5 49 -51 0 
-6 16 50 -47 0 
-7 48 -47 -50 -31 0 
-6 16 48 -47 -50 -31 0 
-8 -3 -9 48 -47 -50 -31 0 
-10 48 -47 -50 -31 0 
-11 -10 -3 48 -47 -50 -31 0 
-3 -9 48 -47 -50 -31 0 
-12 49 -51 0 
-8 51 -49 0 
-13 49 -51 0 
-14 49 -51 0 
-15 21 -7 48 -47 -50 -31 0 
-16 6 51 -49 0 
-17 -18 -19 47 -50 0 
-20 49 -51 0 
-21 15 50 -47 0 
-22 50 -47 0 
-23 41 43 50 -47 0 
-24 -25 -26 48 -47 -50 -31 0 
-27 -11 -3 48 -47 -50 -31 0 
-8 -28 -3 48 -47 -50 -31 0 
-8 -3 48 -47 -50 -31 0 
-11 -7 48 -47 -50 -31 0 
-11 48 -47 -50 -31 0 
-5 -7 -3 48 -47 -50 -31 0 
-5 -10 -3 48 -47 -50 -31 0 
-5 -10 48 -47 -50 -31 0 
-29 48 -47 -50 -31 0 
-8 -6 16 -11 48 -47 -50 -31 0 
-7 -10 48 -47 -50 -31 0 
-17 -30 47 -50 0 
-31 50 -47 0 
-32 -19 47 -50 0 
-14 50 -47 0 
-33 39 50 -47 0 
-34 50 -47 0 
-35 48 -47 -50 -31 0 
-36 42 48 -47 -50 -31 0 
-33 39 -3 48 -47 -50 -31 0 
-37 51 -49 0 
-38 46 -6 16 49 -51 0 
-39 33 50 -47 0 
-40 47 -50 0 
-41 23 43 -42 36 -19 47 -50 0 
-43 23 41 -19 48 -47 -50 -31 0 
-44 -26 50 -47 0 
-38 46 -10 -26 50 -47 0 
-41 23 43 -42 36 47 -50 0 
-17 -26 47 -50 0 
-45 51 -49 0 
-20 51 -49 0 
-46 38 50 -47 0 
-6 16 -10 -3 48 -47 -50 -31 0 
